184953
73,18,47,23,30,51,3,21,67,52,58,7,27,34,5,60,68,41,54,2,11,22,48,24,14,1,29,42,56,32,81,43,70,13,44,79,28,9,0,45,8,19,25,53,36,72,63,12,17,64,49,82,38,62,40,77,78,37,26,71,80,59,33,46,6,55,50,31,74,4,20,61,69,75,66,65,35,76,16,57,15,10,39
